55
2	3	5	6	13	16	17	18	20	23	25	28	30	34	36	37	39	40	41	42	43	44	45	46	52	55	0
1	4	7	9	12	13	16	17	19	20	22	24	26	27	28	32	33	37	41	44	45	48	49	50	52	53	54	0
1	6	11	12	13	15	20	24	28	29	32	37	40	43	44	47	48	53	54	55	0
2	10	11	12	17	18	19	20	22	25	27	31	33	34	35	36	37	38	40	46	49	52	54	55	0
1	7	8	9	11	13	23	26	29	35	40	44	45	52	53	54	0
1	3	7	8	10	12	14	18	21	25	27	33	36	37	38	41	44	45	48	50	54	0
2	5	6	10	13	15	17	18	19	20	21	23	24	25	26	28	29	38	39	41	46	49	52	55	0
5	6	10	13	16	17	18	19	20	21	22	24	25	27	28	29	35	36	38	39	41	43	48	49	51	53	0
2	5	15	18	19	21	22	23	24	25	26	28	30	34	35	36	39	41	42	43	44	47	49	50	51	52	53	0
4	6	7	8	14	19	21	22	24	25	30	31	33	35	39	42	44	49	51	52	54	0
3	4	5	12	14	15	17	22	24	25	27	28	29	30	31	32	34	36	39	40	42	44	46	47	52	0
2	3	4	6	11	13	14	17	19	23	24	27	28	29	33	34	36	44	45	47	49	51	53	54	55	0
1	2	3	5	7	8	12	17	18	22	26	29	31	33	34	35	38	40	41	46	47	50	52	55	0
6	10	11	12	15	19	20	23	24	25	29	31	32	37	38	39	41	42	44	45	48	50	51	52	54	0
3	7	9	11	14	16	17	19	21	25	28	31	36	37	39	40	43	44	46	50	51	53	54	0
1	2	8	15	18	19	23	25	27	28	31	33	34	35	37	38	40	41	42	43	46	50	54	55	0
1	2	4	7	8	11	12	13	15	19	20	21	22	23	24	27	29	32	33	34	35	38	39	40	43	44	48	49	51	53	55	0
1	4	6	7	8	9	13	16	20	24	26	28	29	31	33	34	35	39	43	45	46	50	53	54	55	0
2	4	7	8	9	10	12	14	15	16	17	24	26	28	33	41	45	47	48	49	50	51	52	53	54	55	0
1	2	3	4	7	8	14	17	18	21	22	25	27	29	33	34	39	40	45	46	48	0
6	7	8	9	10	15	17	20	22	25	29	31	32	34	35	38	39	40	41	42	44	46	47	48	54	0
2	4	8	9	10	11	13	17	20	21	23	24	25	27	29	33	36	37	38	42	45	47	48	49	50	51	55	0
1	5	7	9	12	14	16	17	22	24	26	27	29	30	33	35	40	41	42	43	47	49	51	53	54	0
2	3	7	8	9	10	11	12	14	17	18	19	22	23	25	27	29	31	32	38	39	41	42	43	48	50	53	54	55	0
1	4	6	7	8	9	10	11	14	15	16	20	21	22	24	26	27	31	34	35	38	39	41	42	44	45	51	54	0
2	5	7	9	13	18	19	23	25	27	30	32	33	35	37	40	41	45	47	48	52	55	0
2	4	6	8	11	12	16	17	20	22	23	24	25	26	28	29	35	37	38	41	46	47	48	51	53	54	55	0
1	2	3	7	8	9	11	12	15	16	18	19	27	29	30	31	34	35	41	43	44	47	50	53	55	0
3	5	7	8	11	12	13	14	17	18	20	21	22	23	24	27	28	31	33	34	35	38	40	42	46	50	55	0
1	9	10	11	23	26	28	31	35	36	38	40	43	55	0
4	10	11	13	14	15	16	18	21	24	25	28	29	30	32	35	38	42	43	47	50	53	54	0
2	3	11	14	17	21	24	26	31	37	38	39	42	44	46	49	52	53	54	55	0
2	4	6	10	12	13	16	17	18	19	20	22	23	26	29	34	36	39	44	46	47	49	55	0
1	4	9	11	12	13	16	17	18	20	21	25	28	29	33	36	37	40	41	44	45	46	47	50	0
4	5	8	9	10	13	16	17	18	21	23	25	26	27	28	29	30	31	40	45	48	49	50	51	53	54	0
1	4	6	8	9	11	12	15	22	30	33	34	38	40	42	47	52	53	55	0
1	2	3	4	6	14	15	16	22	26	27	32	34	38	39	41	42	45	48	50	51	55	0
4	6	7	8	13	14	16	17	21	22	24	25	27	29	30	31	32	36	37	44	45	46	49	51	52	55	0
1	7	8	9	10	11	14	15	17	18	20	21	24	25	32	33	37	42	43	47	48	49	50	53	54	55	0
1	3	4	5	11	13	15	16	17	20	21	23	26	29	30	34	35	36	41	42	43	44	45	49	52	54	55	0
1	2	6	7	8	9	13	14	16	19	21	23	24	25	26	27	28	34	37	40	43	46	47	48	49	51	52	0
1	9	10	11	14	16	21	22	23	24	25	29	31	32	36	37	39	40	43	45	50	52	0
1	3	8	9	15	16	17	18	23	24	28	30	31	39	40	41	42	44	47	51	53	54	55	0
1	2	3	5	6	9	10	11	12	14	15	17	21	25	28	32	33	34	38	40	43	47	48	50	51	52	54	0
1	2	5	6	12	14	18	19	20	22	25	26	34	35	37	38	40	42	47	48	49	52	55	0
1	4	7	11	13	15	16	18	20	21	27	29	32	33	34	38	41	48	49	50	51	52	53	0
3	9	11	12	13	19	21	22	23	26	27	28	31	33	34	36	39	41	43	44	45	50	51	53	54	0
2	3	6	8	14	17	19	20	21	22	24	26	27	35	37	39	41	44	45	46	49	50	53	54	55	0
2	4	7	8	9	10	12	17	19	22	23	32	33	35	38	39	40	41	45	46	48	51	52	0
2	6	9	13	14	15	16	18	19	22	24	28	29	31	34	35	37	39	42	44	46	47	48	52	55	0
8	9	10	12	14	15	17	19	22	23	25	27	35	37	38	41	43	44	46	47	49	52	53	0
1	2	4	5	7	9	10	11	13	14	19	26	32	36	38	40	41	42	44	45	46	49	50	51	55	0
2	3	5	8	9	12	15	17	18	19	23	24	27	28	31	32	35	36	39	43	46	47	48	51	54	55	0
2	3	4	5	6	10	12	14	15	16	18	19	21	23	24	25	27	31	32	35	39	40	43	44	47	48	53	0
1	3	4	7	12	13	16	17	18	19	22	24	26	27	28	29	30	32	33	36	37	38	39	40	43	45	48	50	52	53	0


comments:
random graph
nodes 55
edges 670
